Reading model...
...model read.
creating competitive generators file...
...competitive generators recorded.
Loading data...
.. real-time data read.
Compiling instance...
...instance created.
Creating Offer Mitigation (model will solve as dispatch if TRUE)...
NOTE: storage offers will not be mitigated
...storage offer mitigation file created
Converting model to MPEC...
...converted
NOTE: initial MIP solve with only storage competitive to get feasible solution
Solving...

Welcome to IBM(R) ILOG(R) CPLEX(R) Interactive Optimizer 12.9.0.0
  with Simplex, Mixed Integer & Barrier Optimizers
5725-A06 5725-A29 5724-Y48 5724-Y49 5724-Y54 5724-Y55 5655-Y21
Copyright IBM Corp. 1988, 2019.  All Rights Reserved.

Type 'help' for a list of available commands.
Type 'help' followed by a command name for more
information on commands.

CPLEX> Logfile 'cplex.log' closed.
Logfile 'C:\Users\llavin\Desktop\test826\logs\tmp95ti_l7t.cplex.log' open.
CPLEX> New value for parallel optimization mode: -1
CPLEX> New value for mixed integer optimality gap tolerance: 0.05
CPLEX> New value for feasibility tolerance: 1e-09
CPLEX> New value for deterministic time limit in ticks: 100000
CPLEX> Problem 'C:\Users\llavin\Desktop\test826\logs\tmp64jli_pz.pyomo.lp' read.
Read time = 0.55 sec. (28.82 ticks)
CPLEX> Problem name         : C:\Users\llavin\Desktop\test826\logs\tmp64jli_pz.pyomo.lp
Objective sense      : Maximize
Variables            :  107783  [Nneg: 1,  Box: 44058,  Free: 8928,
                                 Binary: 54796]
Objective nonzeros   :   17523
Linear constraints   :  246903  [Less: 82866,  Greater: 118424,  Equal: 45613]
  Nonzeros           :  618413
  RHS nonzeros       :  135029

Variables            : Min LB: -5000.000        Max UB: 1000000.       
Objective nonzeros   : Min   : 0.008333333      Max   : 208.3333       
Linear constraints   :
  Nonzeros           : Min   : 0.008333333      Max   : 1000000.       
  RHS nonzeros       : Min   : 0.008333333      Max   : 1000000.       
CPLEX> CPXPARAM_Parallel                                -1
CPXPARAM_Simplex_Tolerances_Feasibility          1.0000000000000001e-09
CPXPARAM_DetTimeLimit                            100000
CPXPARAM_MIP_Tolerances_MIPGap                   0.050000000000000003
Tried aggregator 3 times.
MIP Presolve eliminated 181041 rows and 40960 columns.
MIP Presolve added 6192 rows and 0 columns.
MIP Presolve modified 51394 coefficients.
Aggregator did 25902 substitutions.
Reduced MIP has 46152 rows, 39401 columns, and 139183 nonzeros.
Reduced MIP has 15532 binaries, 0 generals, 0 SOSs, and 0 indicators.
Presolve time = 0.66 sec. (375.52 ticks)
Probing fixed 866 vars, tightened 14528 bounds.
Probing time = 0.39 sec. (17.39 ticks)
Tried aggregator 2 times.
MIP Presolve eliminated 1922 rows and 1770 columns.
MIP Presolve modified 9573 coefficients.
Aggregator did 96 substitutions.
Reduced MIP has 44134 rows, 37535 columns, and 127716 nonzeros.
Reduced MIP has 14666 binaries, 0 generals, 0 SOSs, and 0 indicators.
Presolve time = 0.24 sec. (215.38 ticks)
Probing fixed 0 vars, tightened 4210 bounds.
Probing time = 0.49 sec. (17.41 ticks)
Clique table members: 74318.
MIP emphasis: balance optimality and feasibility.
MIP search method: dynamic search.
Parallel mode: opportunistic, using up to 32 threads.
Root relaxation solution time = 1.22 sec. (1936.87 ticks)

        Nodes                                         Cuts/
   Node  Left     Objective  IInf  Best Integer    Best Bound    ItCnt     Gap

      0     0    63566.4792   413                  63566.4792     7802         
      0     0    38703.6673   149                   Cuts: 241     8160         
      0     0    27068.9125   142                   Cuts: 213     8375         
      0     0    26687.9466   142                    Cuts: 27     8412         
      0     0    26403.5385   144                    Cuts: 23     8434         
      0     0    26261.9164   154                    Cuts: 20     8470         
      0     0    26150.8971   154                    Cuts: 15     8516         
      0     0    26129.5760   154                    Cuts: 20     8533         
      0     0    25981.8207   156                    Cuts: 17     8562         
      0     0    25908.0642   160                 Flowcuts: 8     8575         
      0     0    25739.9451   158                     Cuts: 8     8595         
      0     0    25720.5116   155                     Cuts: 8     8613         
      0     0    25720.5116   159                 Flowcuts: 8     8618         
      0     0    25544.2707   148                     Cuts: 3     8633         
      0     0    25544.0066   156                    Cuts: 23     8650         
      0    25    10561.6281     5                     Cuts: 9     9585         
Elapsed time = 19.36 sec. (11691.04 ticks, tree = 0.02 MB, solutions = 3)
*    22+  139                        10580.1030    12098.0990            14.35%
    215    97    10582.1759    18    10580.1030    12095.5424    11013   14.32%
    394   102    10582.1457    16    10580.1030    12082.9918    11123   14.20%

Cover cuts applied:  9
Implied bound cuts applied:  11
Flow cuts applied:  171
Mixed integer rounding cuts applied:  38

Root node processing (before b&c):
  Real time             =   15.55 sec. (11611.33 ticks)
Parallel b&c, 32 threads:
  Real time             =    5.73 sec. (734.11 ticks)
  Sync time (average)   =    2.17 sec.
  Wait time (average)   =    0.00 sec.
                          ------------
Total (root+branch&cut) =   21.28 sec. (12345.45 ticks)

Solution pool: 11 solutions saved.

MIP - Integer optimal, tolerance (0.05/1e-06):  Objective =  1.0580102986e+04
Current MIP best bound =  1.1083354965e+04 (gap = 503.252, 4.76%)
Solution time =   21.33 sec.  Iterations = 19560  Nodes = 423 (246)
Deterministic time = 12345.76 ticks  (578.85 ticks/sec)

CPLEX> Incumbent solution written to file 'C:\Users\llavin\Desktop\test826\logs\tmpaawq29zi.cplex.sol'.
CPLEX> NOTE: no warmstart specified for MIP iteration, default behavior is true
NOTE: resolving with all competitive generators using storage-only solution to warmstart
Solving...

Welcome to IBM(R) ILOG(R) CPLEX(R) Interactive Optimizer 12.9.0.0
  with Simplex, Mixed Integer & Barrier Optimizers
5725-A06 5725-A29 5724-Y48 5724-Y49 5724-Y54 5724-Y55 5655-Y21
Copyright IBM Corp. 1988, 2019.  All Rights Reserved.

Type 'help' for a list of available commands.
Type 'help' followed by a command name for more
information on commands.

CPLEX> Logfile 'cplex.log' closed.
Logfile 'C:\Users\llavin\Desktop\test826\logs\tmpir8dlbty.cplex.log' open.
CPLEX> New value for parallel optimization mode: -1
CPLEX> New value for mixed integer optimality gap tolerance: 0.05
CPLEX> New value for feasibility tolerance: 1e-09
CPLEX> New value for deterministic time limit in ticks: 100000
CPLEX> Problem 'C:\Users\llavin\Desktop\test826\logs\tmprysqsykb.pyomo.lp' read.
Read time = 0.53 sec. (28.87 ticks)
CPLEX> MIP start file 'C:\Users\llavin\Desktop\test826\logs\tmpe1wch882.cplex.mst' read.
CPLEX> Problem name         : C:\Users\llavin\Desktop\test826\logs\tmprysqsykb.pyomo.lp
Objective sense      : Maximize
Variables            :  109223  [Nneg: 1,  Box: 45498,  Free: 8928,
                                 Binary: 54796]
Objective nonzeros   :   18915
Linear constraints   :  246903  [Less: 82866,  Greater: 118424,  Equal: 45613]
  Nonzeros           :  618413
  RHS nonzeros       :  135029

Variables            : Min LB: -5000.000        Max UB: 1000000.       
Objective nonzeros   : Min   : 0.008333333      Max   : 208.3333       
Linear constraints   :
  Nonzeros           : Min   : 0.008333333      Max   : 1000000.       
  RHS nonzeros       : Min   : 0.008333333      Max   : 1000000.       
CPLEX> CPXPARAM_Parallel                                -1
CPXPARAM_Simplex_Tolerances_Feasibility          1.0000000000000001e-09
CPXPARAM_DetTimeLimit                            100000
CPXPARAM_MIP_Tolerances_MIPGap                   0.050000000000000003
Warning:  No solution found from 1 MIP starts.
Retaining values of one MIP start for possible repair.
Tried aggregator 3 times.
MIP Presolve eliminated 181041 rows and 42400 columns.
MIP Presolve added 6192 rows and 0 columns.
MIP Presolve modified 51394 coefficients.
Aggregator did 25902 substitutions.
Reduced MIP has 46152 rows, 39401 columns, and 139183 nonzeros.
Reduced MIP has 15532 binaries, 0 generals, 0 SOSs, and 0 indicators.
Presolve time = 0.61 sec. (376.25 ticks)
Probing fixed 866 vars, tightened 14528 bounds.
Probing time = 0.36 sec. (17.39 ticks)
Tried aggregator 2 times.
MIP Presolve eliminated 1922 rows and 1770 columns.
MIP Presolve modified 9573 coefficients.
Aggregator did 96 substitutions.
Reduced MIP has 44134 rows, 37535 columns, and 127716 nonzeros.
Reduced MIP has 14666 binaries, 0 generals, 0 SOSs, and 0 indicators.
Presolve time = 0.24 sec. (215.40 ticks)
Probing fixed 0 vars, tightened 4210 bounds.
Probing time = 0.44 sec. (17.41 ticks)
Clique table members: 74318.
MIP emphasis: balance optimality and feasibility.
MIP search method: dynamic search.
Parallel mode: opportunistic, using up to 32 threads.
Root relaxation solution time = 1.61 sec. (2359.26 ticks)

        Nodes                                         Cuts/
   Node  Left     Objective  IInf  Best Integer    Best Bound    ItCnt     Gap

      0     0    93470.4906   740                  93470.4906    12281         
      0     0    68510.3204   449                   Cuts: 470    12903         
      0     0    58999.1828   427                   Cuts: 719    13271         
      0     0    56281.1047   414                   Cuts: 130    13383         
      0     0    56172.2476   409                    Cuts: 16    13400         
      0     0    56137.1718   411                     Cuts: 8    13419         
      0     0    56122.1720   404                    Cuts: 25    13443         
      0     0    56110.7110   408                     Cuts: 7    13452         
      0     0    56110.7110   409                Flowcuts: 12    13459         
      0     0    56110.7110   411                 Flowcuts: 5    13462         
*     0+    0                        36488.9553    56110.7110            53.77%
Repair heuristic found nothing.
      0     6    40453.5469   214    36488.9553   Impl Bds: 5    14007   46.06%
Elapsed time = 16.72 sec. (10054.90 ticks, tree = 0.02 MB, solutions = 1)
    310    99    40397.2393   191    36488.9553    40875.5254    17133   12.02%
    576    90    40223.3224   106    36488.9553    40875.5254    17235   12.02%
*   847+   66                        40044.3303    40875.4246             2.08%
    884   198    40218.4105    93    40044.3303    40875.4246    19310    2.08%
   1067   147    40836.0671   322    40044.3303    40875.4246    17829    2.08%

Clique cuts applied:  49
Cover cuts applied:  2
Implied bound cuts applied:  90
Flow cuts applied:  539
Mixed integer rounding cuts applied:  64

Root node processing (before b&c):
  Real time             =   13.44 sec. (9969.77 ticks)
Parallel b&c, 32 threads:
  Real time             =    8.42 sec. (1220.97 ticks)
  Sync time (average)   =    1.34 sec.
  Wait time (average)   =    0.00 sec.
                          ------------
Total (root+branch&cut) =   21.86 sec. (11190.74 ticks)

Solution pool: 2 solutions saved.

MIP - Integer optimal, tolerance (0.05/1e-06):  Objective =  4.0044330346e+04
Current MIP best bound =  4.0875424641e+04 (gap = 831.094, 2.08%)
Solution time =   21.88 sec.  Iterations = 32379  Nodes = 1136 (1133)
Deterministic time = 11191.05 ticks  (511.59 ticks/sec)

CPLEX> Incumbent solution written to file 'C:\Users\llavin\Desktop\test826\logs\tmpv8mtel7x.cplex.sol'.
CPLEX> Exporting results... 
